HUN,8,6,91
3,22,5,21,0,23,2,27,4,28,1,21
4,24,0,25,2,28,3,27,1,26,5,24
0,26,4,25,2,24,5,24,1,23,3,29
4,27,3,30,5,23,0,21,1,25,2,23
1,28,4,23,2,21,5,23,3,26,0,27
2,22,1,29,3,25,4,29,0,24,5,28
2,22,0,26,4,22,3,21,1,23,5,30
2,22,3,27,5,21,0,28,1,29,4,26
